25
1 0 24
2 0 13
2 1 6
3 0 11
3 1 5
3 2 2
4 0 21
4 1 17
4 2 20
4 3 6
5 0 21
5 1 8
5 2 14
5 3 6
5 4 5
6 0 4
6 1 12
6 2 25
6 3 3
6 4 12
6 5 20
7 0 1
7 1 22
7 2 12
7 3 9
7 4 25
7 5 2
7 6 11
8 0 16
8 1 21
8 2 7
8 3 5
8 4 9
8 5 10
8 6 19
8 7 5
9 0 2
9 1 21
9 2 1
9 3 1
9 4 19
9 5 16
9 6 21
9 7 12
9 8 18
10 0 22
10 1 8
10 2 9
10 3 25
10 4 22
10 5 18
10 6 24
10 7 13
10 8 11
10 9 18
11 0 4
11 1 16
11 2 23
11 3 19
11 4 5
11 5 18
11 6 14
11 7 21
11 8 22
11 9 14
11 10 1
12 0 24
12 1 9
12 2 19
12 3 22
12 4 11
12 5 14
12 6 5
12 7 8
12 8 16
12 9 21
12 10 21
12 11 6
13 0 16
13 1 24
13 2 25
13 3 25
13 4 22
13 5 1
13 6 13
13 7 21
13 8 11
13 9 20
13 10 6
13 11 4
13 12 13
14 0 7
14 1 10
14 2 22
14 3 2
14 4 24
14 5 12
14 6 12
14 7 9
14 8 11
14 9 8
14 10 10
14 11 10
14 12 3
14 13 21
15 0 14
15 1 20
15 2 16
15 3 24
15 4 1
15 5 8
15 6 4
15 7 24
15 8 2
15 9 7
15 10 8
15 11 20
15 12 23
15 13 9
15 14 20
16 0 4
16 1 9
16 2 22
16 3 24
16 4 15
16 5 25
16 6 5
16 7 9
16 8 2
16 9 3
16 10 2
16 11 17
16 12 3
16 13 5
16 14 1
16 15 14
17 0 4
17 1 13
17 2 23
17 3 12
17 4 11
17 5 20
17 6 13
17 7 10
17 8 9
17 9 8
17 10 15
17 11 22
17 12 16
17 13 3
17 14 3
17 15 7
17 16 4
18 0 10
18 1 23
18 2 18
18 3 15
18 4 3
18 5 22
18 6 1
18 7 13
18 8 4
18 9 13
18 10 8
18 11 21
18 12 2
18 13 3
18 14 4
18 15 4
18 16 21
18 17 24
19 0 4
19 1 1
19 2 25
19 3 7
19 4 2
19 5 1
19 6 3
19 7 11
19 8 19
19 9 14
19 10 6
19 11 10
19 12 17
19 13 17
19 14 21
19 15 15
19 16 24
19 17 1
19 18 22
20 0 8
20 1 17
20 2 4
20 3 8
20 4 18
20 5 12
20 6 11
20 7 11
20 8 5
20 9 8
20 10 17
20 11 5
20 12 24
20 13 25
20 14 17
20 15 25
20 16 15
20 17 25
20 18 22
20 19 12
21 0 8
21 1 9
21 2 13
21 3 22
21 4 7
21 5 4
21 6 21
21 7 16
21 8 12
21 9 7
21 10 20
21 11 23
21 12 5
21 13 1
21 14 13
21 15 2
21 16 2
21 17 9
21 18 7
21 19 19
21 20 13
22 0 23
22 1 4
22 2 23
22 3 9
22 4 11
22 5 20
22 6 9
22 7 15
22 8 21
22 9 3
22 10 16
22 11 23
22 12 4
22 13 19
22 14 3
22 15 25
22 16 5
22 17 14
22 18 12
22 19 24
22 20 9
22 21 5
23 0 8
23 1 18
23 2 17
23 3 12
23 4 12
23 5 16
23 6 2
23 7 2
23 8 5
23 9 3
23 10 23
23 11 23
23 12 6
23 13 19
23 14 14
23 15 2
23 16 9
23 17 8
23 18 20
23 19 5
23 20 13
23 21 21
23 22 5
24 0 24
24 1 21
24 2 4
24 3 3
24 4 11
24 5 11
24 6 7
24 7 4
24 8 24
24 9 6
24 10 16
24 11 7
24 12 3
24 13 12
24 14 25
24 15 23
24 16 23
24 17 2
24 18 24
24 19 24
24 20 25
24 21 3
24 22 7
24 23 17
